proyfinal/src/viki/013/experimentInOfficeAgust.take6.output/094f5292-30dc-47ab-b3eb-9606bb6a81d5.als.dat
{'cnf.clauses': '118081',
 'cnf.totvars': '69608',
 'conflict literals': '108',
 'conflicts': '46',
 'decisions': '5963',
 'memused.mb': '14.39',
 'outcome': 'UNSAT',
 'propagations': '43446',
 'restarts': '1',
 'solver.msecs': 35,
 'task.msecs': 87}
