proyfinal/src/viki/013/experimentInOfficeAgust.take6.output/094f5292-30dc-47ab-b3eb-9606bb6a81d5.als.out
Reading from standard input... Use '--help' for help.
============================[ Problem Statistics ]=============================
|                                                                             |
|  Number of variables:         69608                                         |
|  Number of clauses:          118081                                         |
|  Parse time:                   0.02 s                                       |
|                                                                             |
============================[ Search Statistics ]==============================
| Conflicts |          ORIGINAL         |          LEARNT          | Progress |
|           |    Vars  Clauses Literals |    Limit  Clauses Lit/Cl |          |
===============================================================================
===============================================================================
restarts              : 1
conflicts             : 46             (1291 /sec)
decisions             : 5963           (0.00 % random) (167312 /sec)
propagations          : 43446          (1219024 /sec)
conflict literals     : 108            (2.70 % deleted)
Memory used           : 14.39 MB
CPU time              : 0.03564 s

UNSATISFIABLE
